500
200 200
1 160 783
2 160 947
3 160 371
4 159 472
5 159 150
6 159 661
7 159 975
8 158 713
9 158 976
10 158 953
11 158 791
12 157 912
13 157 758
14 157 830
15 157 879
16 156 253
17 156 292
18 156 205
19 156 825
20 155 516
21 154 387
22 154 81
23 154 898
24 154 158
25 153 837
26 153 607
27 153 184
28 152 709
29 152 52
30 152 645
31 151 217
32 151 201
33 151 64
34 150 247
35 149 35
36 149 898
37 149 154
38 149 839
39 148 935
40 148 362
41 148 650
42 147 31
43 147 952
44 147 156
45 147 54
46 147 139
47 147 993
48 146 308
49 145 236
50 145 833
51 145 24
52 145 414
53 145 214
54 145 113
55 144 292
56 144 38
57 144 582
58 144 744
59 144 89
60 143 261
61 143 366
62 143 173
63 143 578
64 142 143
65 142 626
66 142 977
67 142 856
68 141 510
69 141 299
70 141 415
71 141 836
72 140 643
73 140 960
74 140 511
75 139 479
76 139 940
77 139 494
78 139 732
79 139 671
80 139 858
81 138 982
82 138 547
83 137 254
84 137 363
85 136 334
86 136 792
87 136 606
88 136 920
89 136 632
90 136 902
91 135 125
92 135 4
93 135 363
94 134 649
95 134 408
96 133 861
97 131 789
98 130 787
99 130 30
100 130 797
101 130 130
102 129 255
103 129 918
104 128 431
105 128 71
106 127 439
107 127 821
108 127 219
109 127 271
110 127 674
111 127 290
112 126 54
113 126 4
114 126 921
115 125 690
116 125 737
117 124 972
118 124 532
119 124 940
120 124 801
121 124 692
122 124 232
123 124 135
124 124 536
125 123 655
126 123 232
127 123 619
128 123 295
129 123 277
130 123 324
131 122 400
132 122 109
133 122 130
134 121 743
135 121 327
136 121 216
137 121 955
138 120 18
139 120 598
140 120 97
141 120 528
142 120 785
143 120 355
144 119 27
145 119 689
146 119 101
147 118 104
148 118 33
149 118 130
150 118 684
151 116 356
152 116 493
153 115 448
154 115 269
155 115 165
156 115 660
157 115 35
158 114 413
159 114 963
160 114 529
161 114 256
162 113 496
163 113 749
164 113 41
165 113 149
166 113 542
167 113 701
168 112 652
169 112 768
170 112 116
171 112 37
172 111 898
173 111 595
174 111 175
175 111 341
176 111 280
177 111 649
178 110 929
179 110 397
180 110 248
181 110 933
182 110 870
183 109 597
184 109 480
185 109 695
186 109 915
187 109 185
188 109 43
189 109 316
190 108 282
191 108 721
192 108 981
193 107 232
194 107 372
195 106 636
196 105 447
197 105 941
198 105 548
199 105 457
200 105 122
201 105 962
202 105 358
203 105 592
204 105 175
205 105 379
206 103 563
207 103 928
208 103 3
209 103 4
210 102 995
211 102 902
212 102 436
213 102 554
214 101 590
215 101 492
216 100 930
217 100 533
218 99 4
219 99 650
220 99 469
221 99 414
222 99 102
223 99 160
224 98 458
225 98 73
226 98 668
227 98 589
228 97 3
229 97 332
230 97 734
231 96 91
232 96 500
233 96 338
234 96 449
235 95 427
236 95 179
237 95 787
238 95 335
239 95 809
240 95 244
241 94 186
242 93 295
243 93 89
244 93 858
245 93 346
246 92 454
247 92 823
248 92 753
249 91 24
250 91 578
251 91 526
252 91 681
253 91 731
254 90 905
255 90 332
256 90 78
257 89 844
258 89 70
259 89 16
260 89 79
261 88 345
262 88 926
263 88 117
264 87 730
265 86 749
266 86 950
267 86 623
268 85 910
269 85 359
270 84 390
271 84 887
272 84 792
273 84 629
274 82 688
275 82 590
276 82 238
277 82 43
278 82 873
279 82 612
280 81 229
281 81 4
282 81 993
283 81 1000
284 81 992
285 80 737
286 79 589
287 79 62
288 79 767
289 79 111
290 78 598
291 77 447
292 77 920
293 77 252
294 77 358
295 76 535
296 76 731
297 76 276
298 76 963
299 75 856
300 75 498
301 75 146
302 75 462
303 75 496
304 73 242
305 73 240
306 73 23
307 72 16
308 71 545
309 71 852
310 71 276
311 71 792
312 71 502
313 71 629
314 70 582
315 70 317
316 70 72
317 69 255
318 67 548
319 67 125
320 67 801
321 67 432
322 66 109
323 66 313
324 66 750
325 65 320
326 65 505
327 65 154
328 65 962
329 64 485
330 64 392
331 64 297
332 63 383
333 63 873
334 63 731
335 63 793
336 62 181
337 62 922
338 62 397
339 62 100
340 62 799
341 62 608
342 61 482
343 61 111
344 61 102
345 61 976
346 60 836
347 60 469
348 60 179
349 60 564
350 59 743
351 59 250
352 59 976
353 58 503
354 57 513
355 57 427
356 56 697
357 56 642
358 56 101
359 56 930
360 56 727
361 56 569
362 56 81
363 55 707
364 55 275
365 55 738
366 55 723
367 54 190
368 54 895
369 54 47
370 53 577
371 53 91
372 52 756
373 52 205
374 52 696
375 52 103
376 52 647
377 50 51
378 50 348
379 50 837
380 50 259
381 50 782
382 49 765
383 49 349
384 49 630
385 48 70
386 48 681
387 48 206
388 48 517
389 47 942
390 47 985
391 47 774
392 47 817
393 47 709
394 47 49
395 46 66
396 46 667
397 46 941
398 46 188
399 46 75
400 45 775
401 45 872
402 45 467
403 45 70
404 45 673
405 44 964
406 44 489
407 44 21
408 44 0
409 43 679
410 43 129
411 43 698
412 43 349
413 42 764
414 42 135
415 42 756
416 42 972
417 42 747
418 41 738
419 41 202
420 40 469
421 40 872
422 39 402
423 39 427
424 39 35
425 39 430
426 39 317
427 39 571
428 39 144
429 39 43
430 38 655
431 38 583
432 38 12
433 36 632
434 36 981
435 36 879
436 36 106
437 35 475
438 35 967
439 35 130
440 35 590
441 34 257
442 34 893
443 34 227
444 34 154
445 33 534
446 33 524
447 33 304
448 32 233
449 32 188
450 32 808
451 32 200
452 31 148
453 31 475
454 31 361
455 30 218
456 30 836
457 30 686
458 30 608
459 29 121
460 29 382
461 29 747
462 28 506
463 28 652
464 28 940
465 28 438
466 27 724
467 27 758
468 27 956
469 27 391
470 27 795
471 27 794
472 26 836
473 26 879
474 26 189
475 26 965
476 26 994
477 25 241
478 25 545
479 25 547
480 25 938
481 24 997
482 24 325
483 24 973
484 23 559
485 23 118
486 22 651
487 22 563
488 22 585
489 22 379
490 22 360
491 22 525
492 21 288
493 21 94
494 21 790
495 21 607
496 21 981
497 21 995
498 20 17
499 20 170
500 20 748
